30
5
504334
0
0
55 55 54 55 57
1
0
66 67 67 69 68
2
0
46 47 46 44 47
3
0
58 60 55 56 56
4
0
49 57 54 55 53
5
0
46 47 40 46 44
6
0
36 37 35 40 37
7
0
40 42 43 41 46
8
0
64 66 67 62 70
9
0
55 59 58 58 59
10
0
63 63 61 64 64
11
0
48 43 45 37 43
12
0
41 37 40 39 40
13
0
59 58 57 54 61
14
0
50 49 48 49 52
15
0
63 57 58 57 61
16
0
49 48 48 46 45
17
0
50 52 46 49 50
18
0
39 43 42 44 43
19
0
38 38 37 35 38
20
0
66 60 61 63 64
21
0
46 47 44 46 48
22
0
71 69 68 70 65
23
0
45 44 44 46 42
24
0
71 73 73 73 76
25
0
57 59 55 60 57
26
0
37 35 38 35 34
27
0
46 45 46 46 51
28
0
42 37 41 40 38
29
0
69 68 67 68 66
